NAME : A2
TYPE : VRPB
DIMENSION : 26
VEHICLES : 5
CAPACITY : 2550
EDGE_WEIGHT_TYPE : EXACT_2D
NODE_COORD_SECTION
1 12000 16000
2 9795 21510
3 7758 10895
4 12927 2464
5 23286 5538
6 7416 15826
7 21524 24879
8 22337 17915
9 7642 9722
10 3707 20036
11 15492 2721
12 12430 10638
13 13595 1918
14 4290 2721
15 18684 5268
16 8686 9546
17 23140 10989
18 5263 14289
19 19557 17564
20 23281 29684
21 374 22683
22 18804 9082
23 5444 25004
24 20390 25745
25 4310 21692
26 8526 2495
DEMAND_SECTION
1 0
2 549
3 558
4 851
5 388
6 194
7 483
8 389
9 435
10 452
11 343
12 444
13 350
14 307
15 810
16 1002
17 476
18 674
19 691
20 675
21 410
22 351
23 786
24 59
25 362
26 550
BACKHAUL_SECTION
2 3 4 5 6 -1
DEPOT_SECTION
1 
-1
EOF
